9
0 29 8 70 32 31 72 12 62 
29 0 34 47 35 21 50 17 49 
8 34 0 71 28 31 73 17 60 
70 47 71 0 51 41 3 60 26 
32 35 28 51 0 16 52 29 34 
31 21 31 41 16 0 42 23 32 
72 50 73 3 52 42 0 62 26 
12 17 17 60 29 23 62 0 55 
62 49 60 26 34 32 26 55 0 
